50
    1    17    18
    2    11    19
    3    12     5
    4    36    26
    5    20    15
    6    70    64
    7    23    28
    8    22    18
    9    54    60
   10    30    21
   11     5    10
   12    57    58
   13     2     3
   14    79    71
   15    64    67
   16   100    91
   17    82    72
   18    14     7
   19    26    24
   20    52    49
   21    67    64
   22    81    78
   23    40    47
   24    54    57
   25    14    19
   26     1     7
   27     8     1
   28    20    26
   29    68    60
   30    51    46
   31    89    80
   32    43    42
   33    50    46
   34    13     8
   35     1     3
   36    77    76
   37    45    55
   38    44    47
   39    69    79
   40    96    97
   41    10     2
   42    22    20
   43    71    65
   44    19    12
   45    72    82
   46    52    53
   47    44    40
   48    62    72
   49    44    50
   50    28    23
1041
